adpp_gurobi/instances/gcut4_adpp.txt.out
Academic license - for non-commercial use only
Optimize a model with 136 rows, 842 columns and 4314 nonzeros
Variable types: 0 continuous, 842 integer (842 binary)
Coefficient statistics:
  Matrix range     [1e+00, 1e+00]
  Objective range  [9e+00, 6e+02]
  Bounds range     [1e+00, 1e+00]
  RHS range        [1e+00, 1e+00]
Found heuristic solution: objective 1175.5504400
Presolve removed 66 rows and 36 columns
Presolve time: 0.02s
Presolved: 70 rows, 806 columns, 3228 nonzeros
Variable types: 0 continuous, 806 integer (806 binary)

Root relaxation: objective 1.803955e+03, 168 iterations, 0.00 seconds

    Nodes    |    Current Node    |     Objective Bounds      |     Work
 Expl Unexpl |  Obj  Depth IntInf | Incumbent    BestBd   Gap | It/Node Time

     0     0 1803.95468    0    7 1175.55044 1803.95468  53.5%     -    0s
H    0     0                    1768.5107000 1803.95468  2.00%     -    0s
H    0     0                    1802.6060300 1803.95468  0.07%     -    0s
     0     0     cutoff    0      1802.60603 1802.60603  0.00%     -    0s

Cutting planes:
  Clique: 2

Explored 1 nodes (172 simplex iterations) in 0.03 seconds
Thread count was 8 (of 8 available processors)

Solution count 3: 1802.61 1768.51 1175.55 

Optimal solution found (tolerance 1.00e-04)
Best objective 1.802606030000e+03, best bound 1.802606030000e+03, gap 0.0000%
Obj: 1802.61
